305600
30
43
89
20
46
78
44
65
1
26
55
12
93
60
49
92
47
53
58
10
67
90
52
31
80
13
34
8 63
77 18
9 79
69 5
48 84
4 2
72 27
29 45
38 11
61 39
14 57
50 6
76 25
71 64
42 51
68 36
21 96
82 3
19 75
24 66
17 97
33 86
40 85
7 28
98 15
16 81
83 100
59 56
94 70
95 87
22 62
99 23
32 35
54 41
88 74
37 91
